c Result of efficient AIG-to-CNF conversion using package CNF
p cnf 321 1133
-2 3 114 218 223 0
-2 -3 -114 218 223 0
2 -218 0
2 3 -114 0
2 -223 0
2 -3 114 0
3 -4 111 0
3 4 -111 0
-3 4 111 0
-3 -4 -111 0
-4 5 36 0
-4 258 5 0
-4 258 36 0
4 -258 -5 0
4 -5 -36 0
4 -258 -36 0
5 6 -35 0
5 -6 35 0
-5 -6 -35 0
-5 6 35 0
-6 291 7 0
-6 259 291 0
6 -291 0
6 -259 -7 0
-7 292 8 0
-7 260 292 0
7 -292 0
7 -260 -8 0
-8 293 9 0
-8 261 293 0
8 -293 0
8 -261 -9 0
-9 294 10 0
-9 262 294 0
9 -294 0
9 -262 -10 0
-10 295 11 0
-10 263 295 0
10 -295 0
10 -263 -11 0
-11 296 12 0
-11 264 296 0
11 -296 0
11 -264 -12 0
-12 297 13 0
-12 265 297 0
12 -297 0
12 -265 -13 0
-13 298 14 0
-13 266 298 0
13 -298 0
13 -266 -14 0
-14 299 15 0
-14 267 299 0
14 -299 0
14 -267 -15 0
-15 300 16 0
-15 268 300 0
15 -300 0
15 -268 -16 0
-16 301 17 0
-16 269 301 0
16 -301 0
16 -269 -17 0
-17 302 18 0
-17 270 302 0
17 -302 0
17 -270 -18 0
-18 303 19 0
-18 271 303 0
18 -303 0
18 -271 -19 0
-19 304 20 0
-19 272 304 0
19 -304 0
19 -272 -20 0
-20 305 21 0
-20 273 305 0
20 -305 0
20 -273 -21 0
-21 306 22 0
-21 274 306 0
21 -306 0
21 -274 -22 0
-22 307 23 0
-22 275 307 0
22 -307 0
22 -275 -23 0
-23 308 24 0
-23 276 308 0
23 -308 0
23 -276 -24 0
-24 309 25 0
-24 277 309 0
24 -309 0
24 -277 -25 0
-25 310 26 0
-25 278 310 0
25 -310 0
25 -278 -26 0
-26 311 27 0
-26 279 311 0
26 -311 0
26 -279 -27 0
-27 312 28 0
-27 280 312 0
27 -312 0
27 -280 -28 0
-28 313 29 0
-28 281 313 0
28 -313 0
28 -281 -29 0
-29 314 30 0
-29 282 314 0
29 -314 0
29 -282 -30 0
-30 315 31 0
-30 283 315 0
30 -315 0
30 -283 -31 0
-31 316 32 0
-31 284 316 0
31 -316 0
31 -284 -32 0
-32 317 33 0
-32 285 317 0
32 -317 0
32 -285 -33 0
-33 318 34 0
-33 286 318 0
33 -318 0
33 -286 -34 0
34 -319 0
34 -287 -320 0
-34 319 320 0
-34 287 319 0
35 -258 290 0
-35 258 0
-35 -290 0
-36 37 39 0
-36 259 37 0
-36 259 39 0
36 -259 -37 0
36 -37 -39 0
36 -259 -39 0
37 7 -38 0
37 -7 38 0
-37 -7 -38 0
-37 7 38 0
38 -259 291 0
-38 259 0
-38 -291 0
-39 40 42 0
-39 260 40 0
-39 260 42 0
39 -260 -40 0
39 -40 -42 0
39 -260 -42 0
40 8 -41 0
40 -8 41 0
-40 -8 -41 0
-40 8 41 0
41 -260 292 0
-41 260 0
-41 -292 0
-42 43 45 0
-42 261 43 0
-42 261 45 0
42 -261 -43 0
42 -43 -45 0
42 -261 -45 0
43 9 -44 0
43 -9 44 0
-43 -9 -44 0
-43 9 44 0
44 -261 293 0
-44 261 0
-44 -293 0
-45 46 48 0
-45 262 46 0
-45 262 48 0
45 -262 -46 0
45 -46 -48 0
45 -262 -48 0
46 10 -47 0
46 -10 47 0
-46 -10 -47 0
-46 10 47 0
47 -262 294 0
-47 262 0
-47 -294 0
-48 49 51 0
-48 263 49 0
-48 263 51 0
48 -263 -49 0
48 -49 -51 0
48 -263 -51 0
49 11 -50 0
49 -11 50 0
-49 -11 -50 0
-49 11 50 0
50 -263 295 0
-50 263 0
-50 -295 0
-51 52 54 0
-51 264 52 0
-51 264 54 0
51 -264 -52 0
51 -52 -54 0
51 -264 -54 0
52 12 -53 0
52 -12 53 0
-52 -12 -53 0
-52 12 53 0
53 -264 296 0
-53 264 0
-53 -296 0
-54 265 55 0
-54 297 -13 55 0
-54 265 13 0
-54 -297 13 55 0
54 -265 -55 0
54 -265 297 13 0
54 -13 -55 0
54 -265 -297 -13 0
-55 266 56 0
-55 298 -14 56 0
-55 266 14 0
-55 -298 14 56 0
55 -266 -56 0
55 -266 298 14 0
55 -14 -56 0
55 -266 -298 -14 0
-56 267 57 0
-56 299 -15 57 0
-56 267 15 0
-56 -299 15 57 0
56 -267 -57 0
56 -267 299 15 0
56 -15 -57 0
56 -267 -299 -15 0
-57 58 60 0
-57 268 58 0
-57 268 60 0
57 -268 -58 0
57 -58 -60 0
57 -268 -60 0
58 16 -59 0
58 -16 59 0
-58 -16 -59 0
-58 16 59 0
59 -268 300 0
-59 268 0
-59 -300 0
-60 61 63 0
-60 269 61 0
-60 269 63 0
60 -269 -61 0
60 -61 -63 0
60 -269 -63 0
61 17 -62 0
61 -17 62 0
-61 -17 -62 0
-61 17 62 0
62 -269 301 0
-62 269 0
-62 -301 0
-63 64 66 0
-63 270 64 0
-63 270 66 0
63 -270 -64 0
63 -64 -66 0
63 -270 -66 0
64 18 -65 0
64 -18 65 0
-64 -18 -65 0
-64 18 65 0
65 -270 302 0
-65 270 0
-65 -302 0
-66 67 69 0
-66 271 67 0
-66 271 69 0
66 -271 -67 0
66 -67 -69 0
66 -271 -69 0
67 19 -68 0
67 -19 68 0
-67 -19 -68 0
-67 19 68 0
68 -271 303 0
-68 271 0
-68 -303 0
-69 70 72 0
-69 272 70 0
-69 272 72 0
69 -272 -70 0
69 -70 -72 0
69 -272 -72 0
70 20 -71 0
70 -20 71 0
-70 -20 -71 0
-70 20 71 0
71 -272 304 0
-71 272 0
-71 -304 0
-72 73 75 0
-72 273 73 0
-72 273 75 0
72 -273 -73 0
72 -73 -75 0
72 -273 -75 0
73 21 -74 0
73 -21 74 0
-73 -21 -74 0
-73 21 74 0
74 -273 305 0
-74 273 0
-74 -305 0
-75 76 78 0
-75 274 76 0
-75 274 78 0
75 -274 -76 0
75 -76 -78 0
75 -274 -78 0
76 22 -77 0
76 -22 77 0
-76 -22 -77 0
-76 22 77 0
77 -274 306 0
-77 274 0
-77 -306 0
-78 79 81 0
-78 275 79 0
-78 275 81 0
78 -275 -79 0
78 -79 -81 0
78 -275 -81 0
79 23 -80 0
79 -23 80 0
-79 -23 -80 0
-79 23 80 0
80 -275 307 0
-80 275 0
-80 -307 0
-81 82 84 0
-81 276 82 0
-81 276 84 0
81 -276 -82 0
81 -82 -84 0
81 -276 -84 0
82 24 -83 0
82 -24 83 0
-82 -24 -83 0
-82 24 83 0
83 -276 308 0
-83 276 0
-83 -308 0
-84 85 87 0
-84 277 85 0
-84 277 87 0
84 -277 -85 0
84 -85 -87 0
84 -277 -87 0
85 25 -86 0
85 -25 86 0
-85 -25 -86 0
-85 25 86 0
86 -277 309 0
-86 277 0
-86 -309 0
-87 88 90 0
-87 278 88 0
-87 278 90 0
87 -278 -88 0
87 -88 -90 0
87 -278 -90 0
88 26 -89 0
88 -26 89 0
-88 -26 -89 0
-88 26 89 0
89 -278 310 0
-89 278 0
-89 -310 0
-90 91 93 0
-90 279 91 0
-90 279 93 0
90 -279 -91 0
90 -91 -93 0
90 -279 -93 0
91 27 -92 0
91 -27 92 0
-91 -27 -92 0
-91 27 92 0
92 -279 311 0
-92 279 0
-92 -311 0
-93 94 96 0
-93 280 94 0
-93 280 96 0
93 -280 -94 0
93 -94 -96 0
93 -280 -96 0
94 28 -95 0
94 -28 95 0
-94 -28 -95 0
-94 28 95 0
95 -280 312 0
-95 280 0
-95 -312 0
-96 97 99 0
-96 281 97 0
-96 281 99 0
96 -281 -97 0
96 -97 -99 0
96 -281 -99 0
97 29 -98 0
97 -29 98 0
-97 -29 -98 0
-97 29 98 0
98 -281 313 0
-98 281 0
-98 -313 0
-99 100 102 0
-99 282 100 0
-99 282 102 0
99 -282 -100 0
99 -100 -102 0
99 -282 -102 0
100 30 -101 0
100 -30 101 0
-100 -30 -101 0
-100 30 101 0
101 -282 314 0
-101 282 0
-101 -314 0
-102 283 103 0
-102 103 105 0
-102 283 105 0
102 -103 -105 0
102 -283 -103 0
102 -283 -105 0
-103 -31 -104 0
-103 31 104 0
103 31 -104 0
103 -31 104 0
104 -283 315 0
-104 283 0
-104 -315 0
-105 284 106 0
-105 316 -32 106 0
-105 284 32 0
-105 -316 32 106 0
105 -284 -106 0
105 -284 316 32 0
105 -32 -106 0
105 -284 -316 -32 0
-106 285 107 0
-106 107 109 0
-106 285 109 0
106 -107 -109 0
106 -285 -107 0
106 -285 -109 0
-107 -33 -108 0
-107 33 108 0
107 33 -108 0
107 -33 108 0
108 -285 317 0
-108 285 0
-108 -317 0
-109 286 110 0
-109 -318 34 110 0
-109 286 34 0
-109 318 -34 110 0
109 -34 -110 0
109 -286 -318 -34 0
109 -286 -110 0
109 -286 318 34 0
110 -287 -288 320 0
110 -287 -319 -320 0
110 -287 319 320 0
-110 287 0
-110 319 -320 0
-110 288 -319 320 0
-111 -112 -113 0
-111 112 113 0
111 112 -113 0
111 -112 113 0
-112 290 6 0
-112 258 290 0
112 -290 0
112 -258 -6 0
113 -257 -289 0
-113 257 0
-113 289 0
114 -115 216 0
114 115 -216 0
-114 115 216 0
-114 -115 -216 0
-115 116 147 0
-115 290 116 0
-115 290 147 0
115 -290 -116 0
115 -116 -147 0
115 -290 -147 0
116 117 -146 0
116 -117 146 0
-116 -117 -146 0
-116 117 146 0
-117 259 291 0
-117 259 118 0
117 -259 0
117 -291 -118 0
-118 260 292 0
-118 260 119 0
118 -260 0
118 -292 -119 0
-119 261 293 0
-119 261 120 0
119 -261 0
119 -293 -120 0
-120 262 294 0
-120 262 121 0
120 -262 0
120 -294 -121 0
-121 263 295 0
-121 263 122 0
121 -263 0
121 -295 -122 0
-122 264 296 0
-122 264 123 0
122 -264 0
122 -296 -123 0
-123 265 297 0
-123 265 124 0
123 -265 0
123 -297 -124 0
-124 266 298 0
-124 266 125 0
124 -266 0
124 -298 -125 0
-125 267 299 0
-125 267 126 0
125 -267 0
125 -299 -126 0
-126 268 300 0
-126 268 127 0
126 -268 0
126 -300 -127 0
-127 269 301 0
-127 269 128 0
127 -269 0
127 -301 -128 0
-128 270 302 0
-128 270 129 0
128 -270 0
128 -302 -129 0
-129 271 303 0
-129 271 130 0
129 -271 0
129 -303 -130 0
-130 272 304 0
-130 272 131 0
130 -272 0
130 -304 -131 0
-131 273 305 0
-131 273 132 0
131 -273 0
131 -305 -132 0
-132 274 306 0
-132 274 133 0
132 -274 0
132 -306 -133 0
-133 275 307 0
-133 275 134 0
133 -275 0
133 -307 -134 0
-134 276 308 0
-134 276 135 0
134 -276 0
134 -308 -135 0
-135 277 309 0
-135 277 136 0
135 -277 0
135 -309 -136 0
-136 278 310 0
-136 278 137 0
136 -278 0
136 -310 -137 0
-137 279 311 0
-137 279 138 0
137 -279 0
137 -311 -138 0
-138 280 312 0
-138 280 139 0
138 -280 0
138 -312 -139 0
-139 281 313 0
-139 281 140 0
139 -281 0
139 -313 -140 0
-140 282 314 0
-140 282 141 0
140 -282 0
140 -314 -141 0
-141 283 315 0
-141 283 142 0
141 -283 0
141 -315 -142 0
-142 284 316 0
-142 284 143 0
142 -284 0
142 -316 -143 0
-143 285 317 0
-143 285 144 0
143 -285 0
143 -317 -144 0
-144 286 145 0
-144 286 318 0
144 -286 0
144 -318 -145 0
145 -287 0
145 -288 -319 0
-145 287 319 0
-145 287 288 0
146 258 -290 0
-146 -258 0
-146 290 0
-147 148 150 0
-147 291 148 0
-147 291 150 0
147 -291 -148 0
147 -148 -150 0
147 -291 -150 0
148 118 -149 0
148 -118 149 0
-148 -118 -149 0
-148 118 149 0
149 259 -291 0
-149 -259 0
-149 291 0
-150 151 153 0
-150 292 151 0
-150 292 153 0
150 -292 -151 0
150 -151 -153 0
150 -292 -153 0
151 119 -152 0
151 -119 152 0
-151 -119 -152 0
-151 119 152 0
152 260 -292 0
-152 -260 0
-152 292 0
-153 154 156 0
-153 293 154 0
-153 293 156 0
153 -293 -154 0
153 -154 -156 0
153 -293 -156 0
154 120 -155 0
154 -120 155 0
-154 -120 -155 0
-154 120 155 0
155 261 -293 0
-155 -261 0
-155 293 0
-156 157 159 0
-156 294 157 0
-156 294 159 0
156 -294 -157 0
156 -157 -159 0
156 -294 -159 0
157 121 -158 0
157 -121 158 0
-157 -121 -158 0
-157 121 158 0
158 262 -294 0
-158 -262 0
-158 294 0
-159 160 162 0
-159 295 160 0
-159 295 162 0
159 -295 -160 0
159 -160 -162 0
159 -295 -162 0
160 122 -161 0
160 -122 161 0
-160 -122 -161 0
-160 122 161 0
161 263 -295 0
-161 -263 0
-161 295 0
-162 163 165 0
-162 296 163 0
-162 296 165 0
162 -296 -163 0
162 -163 -165 0
162 -296 -165 0
163 123 -164 0
163 -123 164 0
-163 -123 -164 0
-163 123 164 0
164 264 -296 0
-164 -264 0
-164 296 0
-165 297 166 0
-165 -265 124 166 0
-165 297 124 0
-165 265 -124 166 0
165 -297 -166 0
165 265 -297 124 0
165 -124 -166 0
165 -265 -297 -124 0
-166 167 169 0
-166 298 167 0
-166 298 169 0
166 -298 -167 0
166 -167 -169 0
166 -298 -169 0
167 125 -168 0
167 -125 168 0
-167 -125 -168 0
-167 125 168 0
168 266 -298 0
-168 -266 0
-168 298 0
-169 299 170 0
-169 -267 126 170 0
-169 299 126 0
-169 267 -126 170 0
169 -299 -170 0
169 267 -299 126 0
169 -126 -170 0
169 -267 -299 -126 0
-170 171 173 0
-170 300 171 0
-170 300 173 0
170 -300 -171 0
170 -171 -173 0
170 -300 -173 0
171 127 -172 0
171 -127 172 0
-171 -127 -172 0
-171 127 172 0
172 268 -300 0
-172 -268 0
-172 300 0
-173 301 174 0
-173 -269 128 174 0
-173 301 128 0
-173 269 -128 174 0
173 -301 -174 0
173 269 -301 128 0
173 -128 -174 0
173 -269 -301 -128 0
-174 175 177 0
-174 302 175 0
-174 302 177 0
174 -302 -175 0
174 -175 -177 0
174 -302 -177 0
175 129 -176 0
175 -129 176 0
-175 -129 -176 0
-175 129 176 0
176 270 -302 0
-176 -270 0
-176 302 0
-177 178 180 0
-177 303 178 0
-177 303 180 0
177 -303 -178 0
177 -178 -180 0
177 -303 -180 0
178 130 -179 0
178 -130 179 0
-178 -130 -179 0
-178 130 179 0
179 271 -303 0
-179 -271 0
-179 303 0
-180 181 183 0
-180 304 181 0
-180 304 183 0
180 -304 -181 0
180 -181 -183 0
180 -304 -183 0
181 131 -182 0
181 -131 182 0
-181 -131 -182 0
-181 131 182 0
182 272 -304 0
-182 -272 0
-182 304 0
-183 184 186 0
-183 305 184 0
-183 305 186 0
183 -305 -184 0
183 -184 -186 0
183 -305 -186 0
184 132 -185 0
184 -132 185 0
-184 -132 -185 0
-184 132 185 0
185 273 -305 0
-185 -273 0
-185 305 0
-186 187 189 0
-186 306 187 0
-186 306 189 0
186 -306 -187 0
186 -187 -189 0
186 -306 -189 0
187 133 -188 0
187 -133 188 0
-187 -133 -188 0
-187 133 188 0
188 274 -306 0
-188 -274 0
-188 306 0
-189 190 192 0
-189 307 190 0
-189 307 192 0
189 -307 -190 0
189 -190 -192 0
189 -307 -192 0
190 134 -191 0
190 -134 191 0
-190 -134 -191 0
-190 134 191 0
191 275 -307 0
-191 -275 0
-191 307 0
-192 193 195 0
-192 308 193 0
-192 308 195 0
192 -308 -193 0
192 -193 -195 0
192 -308 -195 0
193 135 -194 0
193 -135 194 0
-193 -135 -194 0
-193 135 194 0
194 276 -308 0
-194 -276 0
-194 308 0
-195 309 196 0
-195 -277 136 196 0
-195 309 136 0
-195 277 -136 196 0
195 -309 -196 0
195 277 -309 136 0
195 -136 -196 0
195 -277 -309 -136 0
-196 197 199 0
-196 310 197 0
-196 310 199 0
196 -310 -197 0
196 -197 -199 0
196 -310 -199 0
197 137 -198 0
197 -137 198 0
-197 -137 -198 0
-197 137 198 0
198 278 -310 0
-198 -278 0
-198 310 0
-199 200 202 0
-199 311 200 0
-199 311 202 0
199 -311 -200 0
199 -200 -202 0
199 -311 -202 0
200 138 -201 0
200 -138 201 0
-200 -138 -201 0
-200 138 201 0
201 279 -311 0
-201 -279 0
-201 311 0
-202 203 205 0
-202 312 203 0
-202 312 205 0
202 -312 -203 0
202 -203 -205 0
202 -312 -205 0
203 139 -204 0
203 -139 204 0
-203 -139 -204 0
-203 139 204 0
204 280 -312 0
-204 -280 0
-204 312 0
-205 313 206 0
-205 -281 140 206 0
-205 313 140 0
-205 281 -140 206 0
205 -313 -206 0
205 281 -313 140 0
205 -140 -206 0
205 -281 -313 -140 0
-206 207 209 0
-206 314 207 0
-206 314 209 0
206 -314 -207 0
206 -207 -209 0
206 -314 -209 0
207 141 -208 0
207 -141 208 0
-207 -141 -208 0
-207 141 208 0
208 282 -314 0
-208 -282 0
-208 314 0
-209 315 210 0
-209 210 212 0
-209 315 212 0
209 -210 -212 0
209 -315 -210 0
209 -315 -212 0
-210 -142 -211 0
-210 142 211 0
210 142 -211 0
210 -142 211 0
211 283 -315 0
-211 -283 0
-211 315 0
-212 316 213 0
-212 -284 143 213 0
-212 316 143 0
-212 284 -143 213 0
212 -316 -213 0
212 284 -316 143 0
212 -143 -213 0
212 -284 -316 -143 0
-213 317 214 0
-213 -285 144 214 0
-213 317 144 0
-213 285 -144 214 0
213 -317 -214 0
213 285 -317 144 0
213 -144 -214 0
213 -285 -317 -144 0
-214 318 215 0
-214 -286 145 215 0
-214 318 145 0
-214 286 -145 215 0
214 -318 -215 0
214 286 -318 145 0
214 -145 -215 0
214 -286 -318 -145 0
215 -287 -319 -320 0
215 287 288 -319 0
215 -287 -288 -319 0
-215 319 0
-215 287 -288 0
-215 -287 288 320 0
-216 113 217 0
-216 -113 -217 0
216 -113 217 0
216 113 -217 0
-217 258 290 0
-217 258 117 0
217 -258 0
217 -290 -117 0
218 219 -221 0
218 -219 221 0
-218 -219 -221 0
-218 219 221 0
219 36 -220 0
219 -36 220 0
-219 -36 -220 0
-219 36 220 0
220 258 -5 0
220 -258 5 0
-220 -258 -5 0
-220 258 5 0
221 147 -222 0
221 -147 222 0
-221 -147 -222 0
-221 147 222 0
222 290 -116 0
222 -290 116 0
-222 -290 -116 0
-222 290 116 0
-223 224 226 228 233 0
-223 -224 -226 228 233 0
223 -228 0
223 224 -226 0
223 -233 0
223 -224 226 0
224 39 -225 0
224 -39 225 0
-224 -39 -225 0
-224 39 225 0
225 259 -37 0
225 -259 37 0
-225 -259 -37 0
-225 259 37 0
226 150 -227 0
226 -150 227 0
-226 -150 -227 0
-226 150 227 0
227 291 -148 0
227 -291 148 0
-227 -291 -148 0
-227 291 148 0
228 229 -231 0
228 -229 231 0
-228 -229 -231 0
-228 229 231 0
229 42 -230 0
229 -42 230 0
-229 -42 -230 0
-229 42 230 0
230 260 -40 0
230 -260 40 0
-230 -260 -40 0
-230 260 40 0
231 153 -232 0
231 -153 232 0
-231 -153 -232 0
-231 153 232 0
232 292 -151 0
232 -292 151 0
-232 -292 -151 0
-232 292 151 0
-233 234 239 241 243 0
-233 234 -239 -241 243 0
233 -243 0
233 -239 241 0
233 -234 0
233 239 -241 0
234 235 -237 0
234 -235 237 0
-234 -235 -237 0
-234 235 237 0
235 45 -236 0
235 -45 236 0
-235 -45 -236 0
-235 45 236 0
236 261 -43 0
236 -261 43 0
-236 -261 -43 0
-236 261 43 0
237 156 -238 0
237 -156 238 0
-237 -156 -238 0
-237 156 238 0
238 293 -154 0
238 -293 154 0
-238 -293 -154 0
-238 293 154 0
239 48 -240 0
239 -48 240 0
-239 -48 -240 0
-239 48 240 0
240 262 -46 0
240 -262 46 0
-240 -262 -46 0
-240 262 46 0
241 159 -242 0
241 -159 242 0
-241 -159 -242 0
-241 159 242 0
242 294 -157 0
242 -294 157 0
-242 -294 -157 0
-242 294 157 0
-243 -244 -246 248 0
-243 244 246 248 0
243 -248 0
243 -244 246 0
243 244 -246 0
244 51 -245 0
244 -51 245 0
-244 -51 -245 0
-244 51 245 0
245 263 -49 0
245 -263 49 0
-245 -263 -49 0
-245 263 49 0
246 162 -247 0
246 -162 247 0
-246 -162 -247 0
-246 162 247 0
247 295 -160 0
247 -295 160 0
-247 -295 -160 0
-247 295 160 0
-248 249 251 -253 -255 0
-248 -249 -251 -253 -255 0
-248 249 251 253 255 0
-248 -249 -251 253 255 0
248 249 -251 0
248 -249 251 0
248 253 -255 0
248 -253 255 0
249 54 -250 0
249 -54 250 0
-249 -54 -250 0
-249 54 250 0
250 264 -52 0
250 -264 52 0
-250 -264 -52 0
-250 264 52 0
251 165 -252 0
251 -165 252 0
-251 -165 -252 0
-251 165 252 0
252 296 -163 0
252 -296 163 0
-252 -296 -163 0
-252 296 163 0
253 78 -254 0
253 -78 254 0
-253 -78 -254 0
-253 78 254 0
254 274 -76 0
254 -274 76 0
-254 -274 -76 0
-254 274 76 0
255 189 -256 0
255 -189 256 0
-255 -189 -256 0
-255 189 256 0
256 306 -187 0
256 -306 187 0
-256 -306 -187 0
-256 306 187 0
-321 0
2 0

